BEGIN IONS
CHARGE=1+
IONMODE=positive
SMILES=O=C1C2=CC(O)=CC=C2OC3=CC(O)=C(C(O)=C13)C4OC(CO)C(O)C(O)C4OC5OCC(O)(CO)C5O
INCHI=InChI=1S/C24H26O14/c25-5-13-17(30)19(32)21(38-23-22(33)24(34,6-26)7-35-23)20(37-13)14-10(28)4-12-15(18(14)31)16(29)9-3-8(27)1-2-11(9)36-12/h1-4,13,17,19-23,25-28,30-34H,5-7H2
SCANS=160247
MS_LEVEL=2
INSTRUMENT_TYPE=ESI-Orbitrap
FILE_NAME=BMDMS_mgf.mgf
PEPTIDE_SEQUENCE=*..*
ORGANISM_NAME=BMDMS-NP
COMPOUND_NAME=sibiricaxanthone B M+H
PRINCIPAL_INVESTIGATOR=BMDMS-NP
DATA_COLLECTOR=BMDMS-NP
SUBMIT_USER=mwang87
CONFIDENCE=1
SPECTRUM_ID=CCMSLIB00006514547
PRECURSOR_MZ=539.14
INCHIKEY=LLMCZIBSELEBMK-UHFFFAOYSA-N
PARENT_MASS=538.1327239999999
FORMULA=C24H26O14
107.037003 1.0
END IONS

BEGIN IONS
CHARGE=1+
COMMENT=IDH-305;1628805-46-8;A791KH7YZW;(4R)-4-[(1S)-1-fluoroethyl]-3-[2-[[(1S)-1-[4-methyl-5-[2-(trifluoromethyl)pyridin-4-yl]pyridin-2-yl]ethyl]amino]pyrimidin-4-yl]-1,3-oxazolidin-2-one;(4R)-4-[(1S)-1-fluoroethyl]-3-(2-{[(1S)-1-[4-methyl-2'-(trifluoromethyl)-[3,4'-bipyridin]-6-yl]ethyl]amino}pyrimidin-4-yl)-1,3-oxazolidin-2-one;(4R)-4-[(1S)-1-fluoroethyl]-3-[2-({(1S)-1-[4-methyl-2'-(trifluoromethyl)[3,4'-bipyridin]-6-yl]ethyl}amino)pyrimidin-4-yl]-1,3-oxazolidin-2-one;(R)-4-((S)-1-fluoroethyl)-3-(2-(((S)-1-(4-methyl-2'-(trifluoromethyl)-[3,4'-bipyridin]-6-yl)ethyl)amino)pyrimidin-4-yl)oxazolidin-2-one;IDH305;UNII-A791KH7YZW;CHEMBL3947537;SCHEMBL16045032;BDBM247859;EX-A3224;MFCD31630851;NSC812928;s3574;CS-8084;NSC-812928;MS-29116;HY-104036;A16943;P18095;US9434719, 466;(4R)-4-[(1S)-1-FLUOROETHYL]-3-(2-{[(1S)-1-[4-METHYL-2'-(TRIFLUOROMETHYL)-[3,4'-BIPYRIDIN]-6-YL]ETHYL]AMINOPYRIMIDIN-4-YL)-1,3-OXAZOLIDIN-2-ONE;(4R)-4-[(1S)-1-Fluoroethyl]-3-(2-{[(1S)-1-[4-methyl-2'-(trifluoromethyl)-[3,4'-bipyridin]-6-yl]ethyl]aminopyrimidin-4-yl)]-1,3-oxazolidin-2-one;2-OXAZOLIDINONE, 4-((1S)-1-FLUOROETHYL)-3-(2-(((1S)-1-(4-METHYL-2'-(TRIFLUOROMETHYL)(3,4'-BIPYRIDIN)-6-YL)ETHYL)AMINO)-4-PYRIMIDINYL)-, (4R)-;C81
DESCRIPTION=MCE bioactive compounds
FORMULA=C23H22F4N6O2
INCHI=InChI=1S/C23H22F4N6O2/c1-12-8-17(30-10-16(12)15-4-6-28-19(9-15)23(25,26)27)14(3)31-21-29-7-5-20(32-21)33-18(13(2)24)11-35-22(33)34/h4-10,13-14,18H,11H2,1-3H3,(H,29,31,32)/t13-,14-,18+/m0/s1
SMILES=Cc1cc([C@H](C)Nc2nccc(N3C(=O)OC[C@@H]3[C@H](C)F)n2)ncc1-c1cc(C(F)(F)F)ncc1
FEATURE_ID=510
ADDUCT=[M+H]+
FRAGMENTATION_METHOD=HCD
ISOLATION_WINDOW=1.2000000476840569
ACQUISITION=Crude
INSTRUMENT_TYPE=Orbitrap
IMS_TYPE=none
ION_SOURCE=ESI
IONMODE=positive
DATASET_ID=MSVPLACEHOLDERID
USI=mzspec:MSVPLACEHOLDERID:20220613_100AGC_60000Res_pluskal_mce_1D1_D24_id.mzML:510
SCANS=510
PRECURSOR_PURITY=0.9735733046627605
QUALITY_CHIMERIC=PASSED
QUALITY_EXPLAINED_INTENSITY=0.9841458
QUALITY_EXPLAINED_SIGNALS=0.75
COLLISION_ENERGY=20.0
NUM_PEAKS=4
COMPOUND_NAME=IDH-305
PARENT_MASS=490.174037
INCHI_AUX=DCGDPJCUIKLTDU-SUNYJGFJSA-N
MS_LEVEL=2
RETENTION_TIME=84.92
PRINCIPAL_INVESTIGATOR=Tomas Pluskal
DATA_COLLECTOR=Corinna Brungs
PRECURSOR_MZ=491.18131
INCHIKEY=DCGDPJCUIKLTDU-SUNYJGFJSA-N
227.094147 0.43021
265.095062 0.5072399999999999
491.181091 1.0
491.263916 0.03121
END IONS

BEGIN IONS
CHARGE=1+
SYNON=$:00in-source
INCHIKEY=ZLACPIJRVKLLJM-UHFFFAOYSA-N
INSTRUMENT_TYPE=ESI-QFT
INSTRUMENT=Thermo Q Exactive HF
COLLISION_ENERGY=35HCD
FORMULA=C25H28O11
INCHI=InChI=1S/C25H28O11/c1-31-19-8-13(15(27)4-5-32-25-23(30)22(29)21(28)20(10-26)36-25)6-14-9-17(35-24(14)19)12-2-3-16-18(7-12)34-11-33-16/h2-3,6-9,15,20-23,25-30H,4-5,10-11H2,1H3
AUTHOR=Arpana Vaniya
SPLASH=splash10-056v-3398480000-8c045ed2e7369b866b6c
SUBMITTER=submitter = Arpana Vaniya (University of California, Davis)
COMPUTED_SMILES=OCC1OC(OCCC(O)C2=CC(OC)=C3OC(=CC3=C2)C=4C=CC=5OCOC5C4)C(O)C(O)C1O
COMPUTED_[2M+H-H2O]+=991.318953432
COMPUTED_[2M+K]+=1047.424623432
COMPUTED_[M+H]+=505.171131716
COMPUTED_[2M+NA]+=1031.316093432
COMPUTED_[2M+CL]-=1043.779323432
COMPUTED_[2M+HAC-H]-=1067.370353432
COMPUTED_[M-H20-H]-=485.144771716
COMPUTED_[M-H]-=503.155885716
COMPUTED_[2M-H]-=1007.3190474319999
COMPUTED_[M+NA]+=527.152931716
COMPUTED_[M+H-H2O]+=487.155791716
COMPUTED_[2M+NH4]+=1026.364903432
COMPUTED_[M+CL]-=539.616161716
COMPUTED_[M+NH4]+=522.201741716
COMPUTED_[M+K]+=543.261461716
COMPUTED_[2M+H]+=1009.334293432
COMPUTED_[M+HAC-H]-=563.207191716
RAW_FILENAME=MX_UC_1333_p17_E08_6.raw
AVERAGED_SCANS=16
SOURCE_INTRODUCTION=direct injection
COMPUTED_SPECTRAL_ENTROPY=4.118672882094054
COMPUTED_NORMALIZED_ENTROPY=0.6651214119158143
COMPUTED_MASS_ACCURACY=248.8923520439673
COMPUTED_MASS_ERROR=-0.13517997771873524
MONA_RATING=4.545454545454546
NUM_PEAKS=36
COMPOUND_NAME=2-[3-[2-(1,3-benzodioxol-5-yl)-7-methoxy-1-benzofuran-5-yl]-3-hydroxypropoxy]-6-(hydroxymethyl)oxane-3,4,5-triol
SPECTRUM_ID=VF-NPL-QEHF017611
ADDUCT=[M+K]+
MS_LEVEL=MS2
PRECURSOR_MZ=543.1262817382812
IONMODE=positive
NOMINAL_MASS=504
PARENT_MASS=504.163161716
SMILES=COc1cc(C(O)CCOC2OC(CO)C(O)C(O)C2O)cc2cc(-c3ccc4c(c3)OCO4)oc12
50.387 0.00061617
50.552333 0.00031379
51.064748 0.00063065
51.3006 0.00028161
51.342479 0.00066597
82.242738 0.00030546
83.085447 0.00384987
83.389869 0.0008517199999999999
84.080572 0.00051638
84.959776 0.0048579800000000005
144.717464 0.00031915
144.980857 0.014945809999999999
146.996509 0.023983949999999997
147.04426 0.00185169
147.080596 0.00089712
147.194729 0.00038913
147.723833 0.00053536
149.012436 0.0033691199999999998
149.023443 0.02451429
149.044877 0.0008677600000000001
149.719117 0.0004989899999999999
149.823651 0.0006001800000000001
151.039332 0.00793862
151.075198 0.0017217299999999999
152.21804 0.00064786
152.986099 0.01237788
153.007173 0.00030278
157.894544 0.00070774
158.325171 0.00039563
158.996659 0.12673707
159.99963 0.00083672
545.161345 0.00381915
545.402773 0.6171368300000001
551.5374 0.00078677
563.165743 0.00081425
563.562811 0.00082937
END IONS

BEGIN IONS
CHARGE=1+
COMPOUND_NAME=issue in data points should skip entry
SPECTRUM_ID=VF-NPL-QEHF017611
ADDUCT=[M+K]+
MS_LEVEL=MS2
PRECURSOR_MZ=543.1262817382812
IONMODE=positive
NOMINAL_MASS=504
PARENT_MASS=504.163161716
SMILES=COc1cc(C(O)CCOC2OC(CO)C(O)C(O)C2O)cc2cc(-c3ccc4c(c3)OCO4)oc12
50.387 0.00061617
50.552333d 0.00031379issue in data points should stop entry
51.064748 0.00063065
563.562811 0.00082937
END IONS

BEGIN IONS
CHARGE=1+
COMPOUND_NAME=issue in data points should stop entry
ADDUCT=[M+K]+
PRECURSOR_MZ=543.1262817382812
50.552333d 0.00031379issue in data points should stop entry
51.064748 0.00063065
563.562811 0.00082937
END IONS