Name: quercetin
PrecursorMZ: 303.04992866
RT: 1.9112366
Precursor_type: [M+H]+
ExactMass: 302.04265266
Spectrum_type: 2
charge: 1
SMILES: O=c1c(O)c(-c2cc(O)c(O)cc2)oc2cc(O)cc(O)c12
INCHI: InChI=1S/C15H10O7/c16-7-4-10(19)12-11(5-7)22-15(14(21)13(12)20)6-1-2-8(17)9(18)3-6/h1-5,16-19,21H
InChIKey: REFJWTPEDVJJIY-UHFFFAOYSA-N
Method: HCD
Collision_energy: [30.0]
Isolation_window: 0.7999999999999545
Ion_mode: P
Num Peaks: 50
54.18465 0.114
55.017773 0.11
60.897747 0.105
62.908627 0.104
65.038562 0.323
68.99706 0.585
73.67691 0.104
74.769684 0.103
81.033302 0.25
86.058945 0.123
93.033231 0.336
95.04914 0.328
109.028282 0.494
111.007572 1.253
121.028325 1.12
123.044088 0.398
127.03882 0.352
137.023298 4.494
149.023369 0.746
153.018151 5.683
155.049393 0.24
161.059552 0.353
162.091202 0.203
163.038889 0.919
165.018329 3.07
166.025817 0.523
173.059843 0.558
173.519867 0.28
173.54512 0.094
183.028645 1.14
183.044415 0.339
187.038851 0.411
190.08609 0.245
191.034103 0.123
195.028632 0.337
201.054509 2.79
205.049556 0.357
213.053726 0.098
219.030182 0.186
219.06441 0.356
228.041946 0.268
229.049675 6.508
239.034836 0.296
247.05932 1.078
253.125885 0.127
257.044347 4.495
274.04711 1.234
275.049372 0.248
285.039468 2.072
303.049708 100

Name: Isoquercitrin (fake negative mode)
PrecursorMZ: 465.10275207999996
RT: 1.9112366
Precursor_type: [M-H]-
ExactMass: 464.09547607999997
Spectrum_type: 2
charge: 1
SMILES: O=c1c(OC2OC(CO)C(O)C(O)C2O)c(-c2cc(O)c(O)cc2)oc2cc(O)cc(O)c12
INCHI: InChI=1S/C21H20O12/c22-6-13-15(27)17(29)18(30)21(32-13)33-20-16(28)14-11(26)4-8(23)5-12(14)31-19(20)7-1-2-9(24)10(25)3-7/h1-5,13,15,17-18,21-27,29-30H,6H2/t13-,15-,17+,18-,21+/m1/s1
InChIKey: OVSQVDMCBVZWGM-QSOFNFLRSA-N
Method: HCD
Collision_energy: [30.0]
Isolation_window: 0.7999999999999545
Ion_mode: N
Num Peaks: 18
61.028145 0.726
69.033157 1.675
73.028191 0.371
81.033195 0.666
85.028061 6.437
87.043747 0.42
97.028107 2.312
99.043846 0.453
109.028236 0.665
127.038727 1.501
137.023376 0.516
145.049515 0.732
153.018173 0.621
165.017914 0.334
229.049957 0.69
257.04425 0.542
285.041168 0.506
303.050262 100

Name: Should skip due to data point issue
PrecursorMZ: 465.10275207999996
Precursor_type: [M-H]-
ExactMass: 464.09547607999997
Spectrum_type: 2
charge: 1
Num Peaks: 18
61.028145d 0.726Should skip due to data point issue
69.033157 1.675
73.028191 0.371
81.033195 0.666
85.028061 6.437
87.043747 0.42
97.028107 2.312
99.043846 0.453
109.028236 0.665
127.038727 1.501
137.023376 0.516
145.049515 0.732
153.018173 0.621
165.017914 0.334
229.049957 0.69
257.04425 0.542
285.041168 0.506
303.050262 100

Name: Should skip due to data point issue
PrecursorMZ: 465.10275207999996
Precursor_type: [M-H]-
ExactMass: 464.09547607999997
Spectrum_type: 2
charge: 1
Num Peaks: 18
69.033157 1.675
61.028145d 0.726Should skip due to data point issue
73.028191 0.371
81.033195 0.666
85.028061 6.437
87.043747 0.42
97.028107 2.312
99.043846 0.453
109.028236 0.665
127.038727 1.501
137.023376 0.516
145.049515 0.732
153.018173 0.621
165.017914 0.334
229.049957 0.69
257.04425 0.542
285.041168 0.506
303.050262 100

